```smt2
; [NEW] At line 301, console.log() always succeeds
; PRINCIPLE: P5 - Semantic Correctness
(declare-const logged Bool)
(assert (= logged true))
(assert (not logged))
(check-sat)
; unsat → console.log() unconditionally succeeds
```

```smt2
; [NEW] At line 301, regressions > 0 is guaranteed
; PRINCIPLE: P1 - Precondition Propagation
(declare-const regressions Int)
; Path condition: must pass this guard to reach line 301
(assert (> regressions 0))
; Negation: regressions = 0
(assert (not (> regressions 0)))
(check-sat)
; unsat → regressions > 0 is guaranteed at line 301
```

```smt2
; [NEW] At line 301, changes is non-empty array
; PRINCIPLE: P6 - Boundary Input
(declare-const changes_count Int)
; Path condition guarantees non-empty changes
(assert (> changes_count 0))
; Negation: zero changes
(assert (not (> changes_count 0)))
(check-sat)
; unsat → changes.length > 0 is guaranteed
```